40
1 0 36
2 0 63
2 1 39
3 0 47
3 1 49
3 2 11
4 0 36
4 1 72
4 2 69
4 3 16
5 1 80
5 2 48
5 3 8
5 4 25
6 0 3
6 1 46
6 2 13
6 3 1
6 4 56
6 5 58
7 0 24
7 1 20
7 2 77
7 3 69
7 4 66
7 5 11
8 0 34
8 1 62
8 2 66
8 3 79
8 5 66
8 6 12
8 7 41
9 0 43
9 1 35
9 2 40
9 4 44
9 5 16
9 6 57
9 8 75
10 0 26
10 2 24
10 3 77
10 4 61
10 5 72
10 6 33
10 7 60
10 8 73
11 0 47
11 1 71
11 2 19
11 3 3
11 4 2
11 5 64
11 6 64
11 7 73
11 8 48
11 9 5
11 10 50
12 0 35
12 1 38
12 2 28
12 3 26
12 4 69
12 5 54
12 6 64
12 7 8
12 8 21
12 9 74
12 10 75
13 0 51
13 1 40
13 3 46
13 4 72
13 5 9
13 6 46
13 7 41
13 8 68
13 9 6
13 10 28
13 11 48
13 12 58
14 0 35
14 1 16
14 2 48
14 3 77
14 4 77
14 5 43
14 6 16
14 7 19
14 8 31
14 9 76
14 10 44
14 11 35
14 12 15
14 13 14
15 0 56
15 2 55
15 3 22
15 4 30
15 5 6
15 6 55
15 7 80
15 8 22
15 9 27
15 11 67
15 12 6
15 13 78
16 0 29
16 1 19
16 2 53
16 3 53
16 4 36
16 5 57
16 6 11
16 7 23
16 8 8
16 9 71
16 11 68
16 12 13
16 13 72
16 14 25
16 15 21
17 0 29
17 2 4
17 3 47
17 4 14
17 5 21
17 7 35
17 8 18
17 9 13
17 10 61
17 11 73
17 13 76
17 14 70
17 15 26
17 16 16
18 1 42
18 2 58
18 3 14
18 4 31
18 5 27
18 6 77
18 7 4
18 8 68
18 9 74
18 10 13
18 12 65
18 13 47
18 14 78
18 15 7
18 16 15
19 0 74
19 1 53
19 2 65
19 3 28
19 4 31
19 5 50
19 6 29
19 7 18
19 8 72
19 9 13
19 10 73
19 11 73
19 13 66
19 14 62
19 15 7
19 16 15
19 17 33
19 18 8
20 0 31
20 2 67
20 3 11
20 4 11
20 5 25
20 6 70
20 7 44
20 8 26
20 10 36
20 11 67
20 12 33
20 13 43
20 14 17
20 15 52
20 16 38
20 17 69
20 18 44
20 19 44
21 0 15
21 1 5
21 2 4
21 3 21
21 4 30
21 5 38
21 6 45
21 7 8
21 8 45
21 9 62
21 10 53
21 11 44
21 13 56
21 14 80
21 17 6
21 18 33
21 19 76
21 20 75
22 0 60
22 1 49
22 2 56
22 3 69
22 5 73
22 7 66
22 8 63
22 9 39
22 10 20
22 11 16
22 12 18
22 13 48
22 14 6
22 15 5
22 16 33
22 17 63
22 18 21
22 19 77
22 20 52
22 21 28
23 0 43
23 1 10
23 2 49
23 3 63
23 5 26
23 6 67
23 7 20
23 8 42
23 10 13
23 11 78
23 12 45
23 13 36
23 14 68
23 15 7
23 16 35
23 17 8
23 18 3
23 19 54
23 20 29
23 21 70
23 22 50
24 0 74
24 1 33
24 2 70
24 3 11
24 6 21
24 7 26
24 8 13
24 9 72
24 10 60
24 11 25
24 12 33
24 14 23
24 15 44
24 16 66
24 17 52
24 18 27
24 20 79
24 21 9
24 22 17
24 23 2
25 0 49
25 1 15
25 2 14
25 3 24
25 4 11
25 5 68
25 6 59
25 7 62
25 8 76
25 9 64
25 10 55
25 11 79
25 12 46
25 13 25
25 15 53
25 16 21
25 18 40
25 20 29
25 21 58
25 22 39
25 23 5
25 24 36
26 0 53
26 2 8
26 3 68
26 4 12
26 5 63
26 6 26
26 7 39
26 8 7
26 9 46
26 10 72
26 11 72
26 12 8
26 13 61
26 14 63
26 15 55
26 16 46
26 17 56
26 18 13
26 19 43
26 20 26
26 21 64
26 22 36
26 23 24
26 24 44
26 25 27
27 0 54
27 1 4
27 2 67
27 3 37
27 4 45
27 5 76
27 6 67
27 7 57
27 9 60
27 10 40
27 11 38
27 12 27
27 13 27
27 14 73
27 15 52
27 16 63
27 17 26
27 18 48
27 19 20
27 20 34
27 21 17
27 22 19
27 23 10
27 24 22
27 25 24
27 26 31
28 0 11
28 1 59
28 2 44
28 3 64
28 4 58
28 5 13
28 6 65
28 7 2
28 8 78
28 9 10
28 10 11
28 11 57
28 13 14
28 14 32
28 15 43
28 16 30
28 17 9
28 18 56
28 19 78
28 20 24
28 21 33
28 22 25
28 23 62
28 24 8
28 25 58
28 26 52
28 27 36
29 0 77
29 1 46
29 2 33
29 3 20
29 4 42
29 5 15
29 6 13
29 7 79
29 8 3
29 9 9
29 10 35
29 12 21
29 13 14
29 14 54
29 15 10
29 16 38
29 17 3
29 19 16
29 20 18
29 21 58
29 23 7
29 24 38
29 26 64
29 27 20
29 28 37
30 0 28
30 1 76
30 2 14
30 3 8
30 4 44
30 6 76
30 7 78
30 8 24
30 9 14
30 10 57
30 11 48
30 12 18
30 13 55
30 14 23
30 16 48
30 17 55
30 18 5
30 19 77
30 20 60
30 21 25
30 22 56
30 24 50
30 25 10
30 26 50
30 27 78
30 28 1
30 29 31
31 0 51
31 1 75
31 2 65
31 3 27
31 4 45
31 5 66
31 6 22
31 7 78
31 8 31
31 9 7
31 10 13
31 11 40
31 13 56
31 14 44
31 15 49
31 16 47
31 17 47
31 18 58
31 19 1
31 20 59
31 21 64
31 22 8
31 23 37
31 24 60
31 25 26
31 27 10
31 28 58
31 29 2
31 30 60
32 0 77
32 1 26
32 2 80
32 4 40
32 5 55
32 6 41
32 7 28
32 8 76
32 9 31
32 10 44
32 11 33
32 12 34
32 13 26
32 14 33
32 15 16
32 16 79
32 17 30
32 18 18
32 19 38
32 20 51
32 21 39
32 22 66
32 23 66
32 24 7
32 25 52
32 27 3
32 28 57
32 29 46
32 30 10
32 31 11
33 0 31
33 1 53
33 2 72
33 3 69
33 4 79
33 5 3
33 6 67
33 8 35
33 9 42
33 10 25
33 11 38
33 12 69
33 13 71
33 14 80
33 15 25
33 16 78
33 17 63
33 18 63
33 19 63
33 20 65
33 21 78
33 22 67
33 24 63
33 25 37
33 26 73
33 27 11
33 28 12
33 29 52
33 30 43
33 32 62
34 0 76
34 1 58
34 2 2
34 3 8
34 4 80
34 5 57
34 7 9
34 9 78
34 10 74
34 11 74
34 12 73
34 13 56
34 14 70
34 15 13
34 16 17
34 17 47
34 18 31
34 19 52
34 20 18
34 21 44
34 22 37
34 23 42
34 24 34
34 25 21
34 26 61
34 27 74
34 28 7
34 29 69
34 30 32
34 31 47
34 32 49
35 0 78
35 1 76
35 2 56
35 3 70
35 4 24
35 5 63
35 6 67
35 7 77
35 10 71
35 11 70
35 13 79
35 14 22
35 15 2
35 16 53
35 17 75
35 18 19
35 19 21
35 20 24
35 21 7
35 22 28
35 23 24
35 24 30
35 25 66
35 26 44
35 27 57
35 28 74
35 29 31
35 30 14
35 31 70
35 32 24
35 33 72
35 34 27
36 2 62
36 3 29
36 4 7
36 5 50
36 6 69
36 7 50
36 9 48
36 11 4
36 12 57
36 13 70
36 14 28
36 15 26
36 16 65
36 17 78
36 18 4
36 19 68
36 20 78
36 21 49
36 22 72
36 23 47
36 24 22
36 25 57
36 27 43
36 28 8
36 30 21
36 31 60
36 32 31
36 34 43
36 35 26
37 0 54
37 1 57
37 2 23
37 3 60
37 4 32
37 5 75
37 6 51
37 7 73
37 9 41
37 11 48
37 12 55
37 13 60
37 14 69
37 15 74
37 16 27
37 17 52
37 18 13
37 19 19
37 20 21
37 21 35
37 22 16
37 23 27
37 24 59
37 25 17
37 26 6
37 28 1
37 29 12
37 30 63
37 31 59
37 32 75
37 33 26
37 34 40
37 35 28
37 36 66
38 0 63
38 1 6
38 2 34
38 3 24
38 4 10
38 5 25
38 6 32
38 7 36
38 8 16
38 9 47
38 10 1
38 12 38
38 13 42
38 14 46
38 15 62
38 16 29
38 17 16
38 18 15
38 19 58
38 20 4
38 21 62
38 22 27
38 23 20
38 24 25
38 25 8
38 27 76
38 28 54
38 29 63
38 30 22
38 31 64
38 32 57
38 34 25
38 35 49
38 36 27
38 37 4
39 1 34
39 2 15
39 3 80
39 4 73
39 5 53
39 6 43
39 9 38
39 10 32
39 11 7
39 12 7
39 13 18
39 14 3
39 15 13
39 16 51
39 17 26
39 18 68
39 19 10
39 20 2
39 21 37
39 22 7
39 23 48
39 24 63
39 26 11
39 27 34
39 28 32
39 29 51
39 30 32
39 31 71
39 32 44
39 33 26
39 34 56
39 37 7
39 38 59
